[VALIDATOR STDOUT]
Checking plan: /home/jfan5/Safety-gen/runs/benchmark/optic/grippers_20260205_114054/grippers/optic_results/grippers-n3-r22-o20-s20001.plan
Plan executed successfully - checking goal
Plan valid
Final value: 74 

Successful plans:
Value: 74
 /home/jfan5/Safety-gen/runs/benchmark/optic/grippers_20260205_114054/grippers/optic_results/grippers-n3-r22-o20-s20001.plan 74
